
Gurobi 9.1.2 (linux64, gurobi_cl) logging started Fri Jul 30 13:53:48 2021

Using license file /opt/gurobi/gurobi.lic
Set parameter TimeLimit to value 600
Set parameter Cuts to value 0
Set parameter LogFile to value 912-Cuts0-glass4-0.log

Gurobi Optimizer version 9.1.2 build v9.1.2rc0 (linux64)
Copyright (c) 2021, Gurobi Optimization, LLC

Read MPS format model from file /nfs/models/mip/glass4.mps.bz2
Reading time = 0.00 seconds
glass4: 396 rows, 322 columns, 1815 nonzeros
Thread count: 4 physical cores, 8 logical processors, using up to 8 threads
Optimize a model with 396 rows, 322 columns and 1815 nonzeros
Model fingerprint: 0x0a9d9037
Variable types: 20 continuous, 302 integer (0 binary)
Coefficient statistics:
  Matrix range     [1e+00, 8e+06]
  Objective range  [1e+00, 1e+06]
  Bounds range     [1e+00, 8e+02]
  RHS range        [1e+00, 8e+06]
Presolve removed 6 rows and 6 columns
Presolve time: 0.00s
Presolved: 390 rows, 316 columns, 1803 nonzeros
Variable types: 19 continuous, 297 integer (297 binary)
Found heuristic solution: objective 3.133356e+09

Root relaxation: objective 8.000024e+08, 72 iterations, 0.00 seconds

    Nodes    |    Current Node    |     Objective Bounds      |     Work
 Expl Unexpl |  Obj  Depth IntInf | Incumbent    BestBd   Gap | It/Node Time

     0     0 8.0000e+08    0   72 3.1334e+09 8.0000e+08  74.5%     -    0s
H    0     0                    2.200019e+09 8.0000e+08  63.6%     -    0s
H    0     0                    2.000016e+09 8.0000e+08  60.0%     -    0s
     0     0 8.0000e+08    0   72 2.0000e+09 8.0000e+08  60.0%     -    0s
H    0     2                    2.000016e+09 8.0000e+08  60.0%     -    0s
     0     2 8.0000e+08    0   72 2.0000e+09 8.0000e+08  60.0%     -    0s
H   38    60                    1.950016e+09 8.0000e+08  59.0%   2.8    0s
H  188   557                    1.894460e+09 8.0000e+08  57.8%   2.2    0s
H  576   933                    1.894459e+09 8.0000e+08  57.8%   2.3    0s
*  799   933              93    1.890015e+09 8.0000e+08  57.7%   2.3    0s
*  800   933              92    1.888904e+09 8.0000e+08  57.6%   2.3    0s
H 1984  1603                    1.866683e+09 8.0000e+08  57.1%   2.7    0s
H 1988  1523                    1.866682e+09 8.0000e+08  57.1%   2.7    0s
H 2089  1517                    1.800016e+09 8.0000e+08  55.6%   2.7    0s
H 2632  1781                    1.766682e+09 8.0000e+08  54.7%   2.9    0s
H 6268  3204                    1.733349e+09 8.0000e+08  53.8%   3.2    0s
*17769 11851             106    1.728587e+09 8.0000e+08  53.7%   3.2    1s
H18983 11926                    1.714301e+09 8.0000e+08  53.3%   3.2    1s
H19009 11985                    1.700015e+09 8.0000e+08  52.9%   3.2    1s
*21490 14341              60    1.700015e+09 8.0000e+08  52.9%   3.2    1s
*25122 16841              82    1.700015e+09 8.0000e+08  52.9%   3.2    2s
H31350 20608                    1.700014e+09 8.0000e+08  52.9%   3.2    2s
H36398 20818                    1.600015e+09 8.0000e+08  50.0%   3.3    2s
*38347 22286              78    1.600014e+09 8.0000e+08  50.0%   3.3    2s
H40357 21141                    1.500013e+09 8.0000e+08  46.7%   3.3    2s
H53618 27765                    1.500012e+09 8.0000e+08  46.7%   3.4    3s
H53632 23896                    1.450012e+09 8.0000e+08  44.8%   3.4    3s
H68656 28298                    1.400013e+09 8.0000e+08  42.9%   3.8    4s
H68813 19180                    1.200013e+09 8.0000e+08  33.3%   3.8    4s
 69378 18324 infeasible   53      1.2000e+09 8.0000e+08  33.3%   3.8    5s

Explored 102606 nodes (381352 simplex iterations) in 6.39 seconds
Thread count was 8 (of 8 available processors)

Solution count 10: 1.20001e+09 1.40001e+09 1.45001e+09 ... 1.70001e+09

Optimal solution found (tolerance 1.00e-04)
Best objective 1.200012600000e+09, best bound 1.200003200000e+09, gap 0.0008%
